p cnf 217 370               
-19 67 0
-16 64 0
-13 61 0
-10 58 0
-7 55 0
-1 52 0
-4 52 0
1 4 -52 0
-52 55 0
7 52 -55 0
-55 58 0
10 55 -58 0
-58 61 0
13 58 -61 0
-61 64 0
16 61 -64 0
-64 67 0
19 64 -67 0
67 83 0
-20 68 0
-17 65 0
-14 62 0
-11 59 0
-8 56 0
-2 53 0
-5 53 0
2 5 -53 0
-53 56 0
8 53 -56 0
-56 59 0
11 56 -59 0
-59 62 0
14 59 -62 0
-62 65 0
17 62 -65 0
-65 68 0
20 65 -68 0
68 70 0
67 70 0
-68 -67 -70 0
70 -74 0
-67 71 0
-68 71 0
67 68 -71 0
71 72 0
-21 69 0
-18 66 0
-15 63 0
-12 60 0
-9 57 0
-3 54 0
-6 54 0
3 6 -54 0
-54 57 0
9 54 -57 0
-57 60 0
12 57 -60 0
-60 63 0
15 60 -63 0
-63 66 0
18 63 -66 0
-66 69 0
21 66 -69 0
69 72 0
-71 -69 -72 0
72 -74 0
-69 73 0
-71 73 0
69 71 -73 0
73 -74 0
-70 -72 -73 74 0
-74 -67 80 0
74 -22 80 0
-67 -22 80 0
-80 83 0
68 84 0
-74 -68 81 0
74 -23 81 0
-68 -23 81 0
-81 84 0
69 85 0
-74 -69 82 0
74 -24 82 0
-69 -24 82 0
-82 85 0
-83 -84 -85 86 0
-86 -87 0
-6 28 0
-4 27 0
-5 27 0
4 5 -27 0
-27 28 0
6 27 -28 0
-3 26 0
-1 25 0
-2 25 0
1 2 -25 0
-25 26 0
3 25 -26 0
-28 -26 -39 0
39 -51 0
-26 40 0
-28 40 0
26 28 -40 0
-9 30 0
-7 29 0
-8 29 0
7 8 -29 0
-29 30 0
9 29 -30 0
-40 -30 -41 0
41 -51 0
-30 42 0
-40 42 0
30 40 -42 0
-12 32 0
-10 31 0
-11 31 0
10 11 -31 0
-31 32 0
12 31 -32 0
-42 -32 -43 0
43 -51 0
-32 44 0
-42 44 0
32 42 -44 0
-15 34 0
-13 33 0
-14 33 0
13 14 -33 0
-33 34 0
15 33 -34 0
-44 -34 -45 0
45 -51 0
-34 46 0
-44 46 0
34 44 -46 0
-18 36 0
-16 35 0
-17 35 0
16 17 -35 0
-35 36 0
18 35 -36 0
-46 -36 -47 0
47 -51 0
-36 48 0
-46 48 0
36 46 -48 0
-21 38 0
-19 37 0
-20 37 0
19 20 -37 0
-37 38 0
21 37 -38 0
-48 -38 -49 0
49 -51 0
38 48 -50 0
50 -51 0
51 -87 0
74 -87 0
-23 -22 -75 0
75 -79 0
-22 76 0
-23 76 0
22 23 -76 0
-76 -24 -77 0
77 -79 0
24 76 -78 0
78 -79 0
79 -87 0
-1 4 -88 0
88 -98 0
-1 -4 89 0
1 4 89 0
-4 4 89 0
-2 5 -90 0
-89 90 -91 0
91 -98 0
-2 -5 92 0
2 5 92 0
-5 5 92 0
-89 -92 93 0
-3 6 -94 0
-93 94 -95 0
95 -98 0
98 -216 0
-4 7 -99 0
99 -109 0
-4 -7 100 0
4 7 100 0
-7 7 100 0
-5 8 -101 0
-100 101 -102 0
102 -109 0
-5 -8 103 0
5 8 103 0
-8 8 103 0
-100 -103 104 0
-6 9 -105 0
-104 105 -106 0
106 -109 0
109 -216 0
-7 10 -110 0
110 -120 0
-7 -10 111 0
7 10 111 0
-10 10 111 0
-8 11 -112 0
-111 112 -113 0
113 -120 0
-8 -11 114 0
8 11 114 0
-11 11 114 0
-111 -114 115 0
-9 12 -116 0
-115 116 -117 0
117 -120 0
120 -216 0
-10 13 -121 0
121 -131 0
-10 -13 122 0
10 13 122 0
-13 13 122 0
-11 14 -123 0
-122 123 -124 0
124 -131 0
-11 -14 125 0
11 14 125 0
-14 14 125 0
-122 -125 126 0
-12 15 -127 0
-126 127 -128 0
128 -131 0
131 -216 0
-13 16 -132 0
132 -142 0
-13 -16 133 0
13 16 133 0
-16 16 133 0
-14 17 -134 0
-133 134 -135 0
135 -142 0
-14 -17 136 0
14 17 136 0
-17 17 136 0
-133 -136 137 0
-15 18 -138 0
-137 138 -139 0
139 -142 0
142 -216 0
-16 19 -143 0
143 -153 0
-16 -19 144 0
16 19 144 0
-19 19 144 0
-17 20 -145 0
-144 145 -146 0
146 -153 0
-17 -20 147 0
17 20 147 0
-20 20 147 0
-144 -147 148 0
-18 21 -149 0
-148 149 -150 0
150 -153 0
153 -216 0
-22 23 -154 0
154 -184 0
-22 -23 155 0
22 23 155 0
-23 23 155 0
-1 2 -156 0
-155 156 -157 0
157 -184 0
-1 -2 158 0
1 2 158 0
-2 2 158 0
-155 -158 159 0
-4 5 -160 0
-159 160 -161 0
161 -184 0
-4 -5 162 0
4 5 162 0
-5 5 162 0
-159 -162 163 0
-7 8 -164 0
-163 164 -165 0
165 -184 0
-7 -8 166 0
7 8 166 0
-8 8 166 0
-163 -166 167 0
-10 11 -168 0
-167 168 -169 0
169 -184 0
-10 -11 170 0
10 11 170 0
-11 11 170 0
-167 -170 171 0
-13 14 -172 0
-171 172 -173 0
173 -184 0
-13 -14 174 0
13 14 174 0
-14 14 174 0
-171 -174 175 0
-16 17 -176 0
-175 176 -177 0
177 -184 0
-16 -17 178 0
16 17 178 0
-17 17 178 0
-175 -178 179 0
-19 20 -180 0
-179 180 -181 0
181 -184 0
184 -216 0
-23 24 -185 0
185 -215 0
-23 -24 186 0
23 24 186 0
-24 24 186 0
-2 3 -187 0
-186 187 -188 0
188 -215 0
-2 -3 189 0
2 3 189 0
-3 3 189 0
-186 -189 190 0
-5 6 -191 0
-190 191 -192 0
192 -215 0
-5 -6 193 0
5 6 193 0
-6 6 193 0
-190 -193 194 0
-8 9 -195 0
-194 195 -196 0
196 -215 0
-8 -9 197 0
8 9 197 0
-9 9 197 0
-194 -197 198 0
-11 12 -199 0
-198 199 -200 0
200 -215 0
-11 -12 201 0
11 12 201 0
-12 12 201 0
-198 -201 202 0
-14 15 -203 0
-202 203 -204 0
204 -215 0
-14 -15 205 0
14 15 205 0
-15 15 205 0
-202 -205 206 0
-17 18 -207 0
-206 207 -208 0
208 -215 0
-17 -18 209 0
17 18 209 0
-18 18 209 0
-206 -209 210 0
-20 21 -211 0
-210 211 -212 0
212 -215 0
215 -216 0
87 0
216 0
